c SAT Generator for power-law distributed variable frequencies
c -g u -v 20 -c 91 -k 3 -p 2.750000 -b 3.200000 -f /home/schmidt/Devel/ni-kop-sat/data/ensemble/ruf20-91/ruf20-91-663 -u 1 -U 1 -s 3463693955
p cnf 20 91
-10 -16 -18 0
-15 17 -18 0
6 -12 -20 0
1 -17 19 0
-2 10 -17 0
-11 -12 -16 0
1 6 -14 0
1 13 19 0
-6 9 19 0
3 15 -19 0
-4 -13 -18 0
2 9 20 0
-3 -6 14 0
3 -4 -12 0
7 -12 20 0
3 -6 -13 0
-10 -19 20 0
-3 -16 -20 0
-8 13 15 0
2 -9 15 0
2 9 -14 0
-13 14 17 0
-3 -17 -20 0
5 17 19 0
8 9 20 0
5 -14 20 0
2 7 16 0
12 -16 17 0
-4 11 -18 0
13 15 16 0
-1 9 -20 0
-1 -2 16 0
1 2 -8 0
9 -11 14 0
2 11 -17 0
-15 -17 20 0
3 7 9 0
-4 -14 -17 0
-5 -7 -16 0
-2 4 6 0
9 15 20 0
-5 -12 -20 0
-3 7 20 0
7 -11 -15 0
5 11 -17 0
16 19 -20 0
2 -6 19 0
-8 -10 -11 0
4 -7 15 0
5 13 -17 0
9 13 -18 0
7 14 -19 0
-7 -12 15 0
13 16 -18 0
-3 18 20 0
1 17 18 0
-14 -15 16 0
-9 -11 -12 0
1 -3 4 0
3 -5 -14 0
-16 -18 -20 0
7 11 -16 0
7 12 17 0
-3 -6 9 0
5 7 17 0
3 7 19 0
3 -12 -17 0
14 -16 19 0
1 -8 -14 0
3 -11 17 0
-3 -10 17 0
-1 14 -19 0
3 16 19 0
3 4 -12 0
2 -11 17 0
11 -13 -14 0
-5 7 -18 0
-2 -5 7 0
13 17 -18 0
-10 -15 18 0
-2 9 11 0
11 -14 -19 0
-10 13 15 0
-4 13 14 0
-1 4 14 0
-1 4 -10 0
10 16 19 0
7 -11 16 0
4 -5 17 0
-8 14 -20 0
-2 -13 17 0
